(set-option :produce-models true)
(set-logic QF_UF)
(declare-fun p18() Bool)
(declare-fun p46() Bool)
(declare-fun p70() Bool)
(declare-fun p87() Bool)
(declare-fun p65() Bool)
(declare-fun p38() Bool)
(declare-fun p30() Bool)
(declare-fun p9() Bool)
(declare-fun p68() Bool)
(declare-fun p75() Bool)
(declare-fun p23() Bool)
(declare-fun p67() Bool)
(declare-fun p53() Bool)
(declare-fun p49() Bool)
(declare-fun p15() Bool)
(declare-fun p88() Bool)
(declare-fun p22() Bool)
(declare-fun p27() Bool)
(declare-fun p7() Bool)
(declare-fun p56() Bool)
(declare-fun p32() Bool)
(declare-fun p2() Bool)
(declare-fun p11() Bool)
(declare-fun p74() Bool)
(declare-fun p28() Bool)
(declare-fun p55() Bool)
(declare-fun p39() Bool)
(declare-fun p6() Bool)
(declare-fun p52() Bool)
(declare-fun p76() Bool)
(declare-fun p43() Bool)
(declare-fun p66() Bool)
(declare-fun p16() Bool)
(declare-fun p82() Bool)
(declare-fun p69() Bool)
(declare-fun p60() Bool)
(declare-fun p77() Bool)
(declare-fun p89() Bool)
(declare-fun p48() Bool)
(declare-fun p71() Bool)
(declare-fun p44() Bool)
(declare-fun p73() Bool)
(declare-fun p21() Bool)
(declare-fun p3() Bool)
(declare-fun p42() Bool)
(declare-fun p84() Bool)
(declare-fun p36() Bool)
(declare-fun p33() Bool)
(declare-fun p85() Bool)
(declare-fun p83() Bool)
(declare-fun p86() Bool)
(declare-fun p63() Bool)
(declare-fun p40() Bool)
(declare-fun p78() Bool)
(declare-fun p58() Bool)
(declare-fun p72() Bool)
(declare-fun p64() Bool)
(declare-fun p20() Bool)
(declare-fun p54() Bool)
(declare-fun p1() Bool)
(declare-fun p26() Bool)
(declare-fun p0() Bool)
(declare-fun p47() Bool)
(declare-fun p17() Bool)
(declare-fun p8() Bool)
(declare-fun p4() Bool)
(declare-fun p5() Bool)
(declare-fun p62() Bool)
(declare-fun p10() Bool)
(declare-fun p31() Bool)
(declare-fun p81() Bool)
(declare-fun p12() Bool)
(declare-fun p13() Bool)
(declare-fun p34() Bool)
(declare-fun p35() Bool)
(declare-fun p59() Bool)
(declare-fun p24() Bool)
(declare-fun p37() Bool)
(declare-fun p14() Bool)
(declare-fun p19() Bool)
(declare-fun p80() Bool)
(declare-fun p61() Bool)
(declare-fun p29() Bool)
(declare-fun p41() Bool)
(declare-fun p50() Bool)
(declare-fun p25() Bool)
(declare-fun p57() Bool)
(declare-fun p79() Bool)
(declare-fun p51() Bool)
(declare-fun p45() Bool)
(assert
(and (or (not p18) (not p46) p70) (or p87 p65 (not p87)) (or p38 p30 (not p9)) (or (not p68) p75 (not p23)) (or (not p67) (not p53) (not p49)) (or p15 (not p88) (not p22)) (or (not p49) p27 p88) (or (not p22) p38 (not p7)) (or p56 (not p32) (not p2)) (or p49 p11 p74) (or (not p2) p28 (not p55)) (or (not p39) (not p15) (not p6)) (or (not p39) p52 p76) (or p43 (not p66) p76) (or (not p16) (not p43) p6) (or (not p82) p55 p69) (or (not p60) (not p77) p89) (or (not p48) p38 p53) (or (not p71) (not p44) p48) (or (not p70) p28 p73) (or (not p21) (not p3) p65) (or (not p75) (not p42) (not p84)) (or (not p36) (not p33) (not p71)) (or p85 (not p83) (not p28)) (or (not p70) p86 (not p63)) (or p27 p88 (not p60)) (or (not p40) (not p42) p78) (or (not p58) (not p72) (not p71)) (or p64 (not p3) (not p20)) (or p54 p1 p26) (or (not p87) (not p0) (not p47)) (or (not p38) (not p1) (not p32)) (or (not p2) p22 (not p85)) (or p49 (not p40) p73) (or p63 p17 p53) (or p8 p75 (not p72)) (or p48 p71 (not p82)) (or (not p4) p9 p5) (or (not p40) p54 p62) (or (not p58) (not p62) p75) (or p63 p5 (not p69)) (or (not p70) p46 p72) (or p28 (not p53) (not p10)) (or p22 (not p64) p28) (or p8 (not p75) (not p31)) (or p74 p81 (not p33)) (or (not p23) p81 (not p4)) (or p48 p20 (not p18)) (or p11 p21 (not p28)) (or p0 p85 (not p87)) (or p12 (not p13) (not p89)) (or p23 p85 (not p55)) (or (not p34) p72 (not p66)) (or p35 (not p85) p36) (or p17 (not p42) p89) (or (not p20) (not p59) (not p65)) (or p12 p11 p75) (or (not p21) (not p24) (not p7)) (or (not p27) (not p37) p18) (or p69 (not p24) (not p31)) (or p68 (not p85) (not p86)) (or (not p66) (not p42) (not p82)) (or (not p76) p14 (not p9)) (or (not p24) p67 (not p19)) (or p86 (not p2) (not p65)) (or (not p22) (not p63) p42) (or (not p65) (not p26) (not p80)) (or p64 (not p61) (not p13)) (or p26 (not p35) p84) (or p46 p1 p74) (or (not p32) (not p0) (not p64)) (or p71 p39 (not p66)) (or p87 (not p1) (not p4)) (or p76 p35 (not p70)) (or p56 (not p37) (not p4)) (or (not p18) (not p70) (not p53)) (or p29 p15 p37) (or p71 (not p59) p68) (or (not p71) (not p64) p66) (or (not p61) (not p15) p12) (or (not p71) p5 (not p75)) (or (not p23) (not p71) (not p87)) (or (not p63) p41 (not p77)) (or (not p61) p0 (not p40)) (or (not p80) p87 p13) (or (not p22) (not p59) p56) (or (not p77) (not p11) p53) (or p75 p42 p89) (or (not p73) p60 (not p60)) (or p64 (not p7) (not p42)) (or p88 (not p11) (not p65)) (or p54 (not p62) p87) (or p86 (not p12) (not p50)) (or p1 (not p73) p59) (or (not p56) p58 (not p84)) (or (not p80) p46 (not p85)) (or p16 p25 (not p9)) (or p84 p4 (not p2)) (or p32 (not p57) p54) (or p20 (not p53) p22) (or (not p79) p11 p42) (or (not p63) (not p64) p2) (or p53 p16 p34) (or p36 p46 (not p76)) (or (not p36) (not p59) p20) (or p2 p38 (not p13)) (or (not p61) (not p24) (not p31)) (or p63 (not p54) p58) (or p61 p21 p81) (or p78 (not p34) p70) (or (not p1) p49 (not p42)) (or p26 (not p89) (not p19)) (or p27 (not p40) (not p62)) (or p70 (not p83) p20) (or (not p65) (not p4) (not p21)) (or p85 (not p36) (not p75)) (or (not p72) p73 p35) (or (not p48) (not p24) (not p64)) (or (not p13) p10 p7) (or (not p80) p23 (not p62)) (or (not p51) (not p50) p45) (or (not p15) (not p73) (not p56)) (or (not p55) (not p42) p22) (or (not p71) p1 p79) (or (not p32) (not p41) p37) (or (not p21) (not p56) p59) (or (not p48) (not p80) (not p35)) (or p61 p66 (not p49)) (or p45 p80 (not p67)) (or p6 p66 p64) (or p55 p29 p19) (or p12 p24 p26) (or (not p87) (not p66) p58) (or p37 p74 (not p51)) (or p17 (not p10) (not p53)) (or (not p48) (not p77) p21) (or p23 p60 p71) (or (not p3) (not p25) p28) (or p63 p2 p60) (or p86 (not p10) p70) (or (not p23) p47 p50) (or p87 (not p22) p62) (or p52 (not p61) (not p29)) (or (not p8) (not p28) p30) (or p17 p79 p1) (or (not p58) (not p22) (not p42)) (or (not p76) p4 p57) (or (not p32) p49 p12) (or (not p34) p16 p24) (or p6 (not p4) p32) (or p13 (not p48) (not p63)) (or p60 (not p10) p89) (or (not p19) p13 p13) (or (not p62) p69 p36) (or (not p56) (not p63) (not p26)) (or p51 (not p0) (not p45)) (or p1 p3 (not p51)) (or (not p26) (not p66) p8) (or p7 (not p42) (not p41)) (or p16 p82 (not p51)) (or (not p22) p62 (not p75)) (or (not p6) p62 p86) (or p16 p80 p74) (or p13 p61 p28) (or (not p22) (not p66) (not p0)) (or (not p11) p41 p18) (or (not p13) p2 (not p40)) (or p1 p31 p62) (or p25 (not p11) (not p59)) (or p10 (not p17) (not p77)) (or p2 p73 p73) (or p59 p5 (not p3)) (or p74 p67 p35) (or p78 p64 (not p47)) (or p75 (not p54) (not p39)) (or (not p5) p55 p40) (or (not p40) p59 p89) (or (not p21) p36 (not p58)) (or (not p12) (not p63) (not p62)) (or (not p4) p88 p26) (or p7 p3 (not p18)) (or p22 (not p87) (not p87)) (or (not p38) p6 (not p30)) (or p80 (not p44) p88) (or (not p84) (not p2) p69) (or (not p12) p8 (not p78)) (or p39 (not p72) p86) (or (not p74) (not p3) p81) (or (not p47) p74 (not p88)) (or (not p19) p7 p30) (or (not p67) (not p2) (not p8)) (or p6 p28 (not p57)) (or (not p27) p75 (not p33)) (or (not p11) (not p23) p54) (or (not p60) p46 (not p26)) (or p57 (not p16) (not p6)) (or (not p54) (not p86) p67) (or p81 (not p53) (not p84)) (or (not p14) (not p35) (not p47)) (or (not p64) (not p12) (not p14)) (or p16 (not p49) (not p1)) (or (not p0) (not p62) (not p22)) (or (not p85) p70 p1) (or (not p36) (not p84) p34) (or (not p73) (not p3) p20) (or p80 (not p22) (not p83)) (or (not p85) p88 (not p41)) (or (not p28) (not p51) p2) (or p64 (not p35) (not p32)) (or (not p10) (not p49) p11) (or p3 (not p8) (not p74)) (or p13 (not p86) p50) (or (not p58) p6 p21) (or p30 p51 (not p45)) (or (not p26) (not p44) p55) (or p70 (not p27) p51) (or p56 (not p88) p14) (or p84 (not p88) (not p54)) (or (not p62) p47 (not p51)) (or p50 (not p57) p12) (or p52 (not p4) p39) (or p38 p5 p73) (or (not p49) p66 (not p13)) (or p52 (not p14) p36) (or p8 p65 p11) (or (not p69) (not p23) p70) (or p89 (not p67) p58) (or p4 (not p0) (not p49)) (or (not p39) p82 (not p4)) (or p83 (not p7) (not p48)) (or p42 p19 p89) (or (not p30) p12 p56) (or p76 (not p6) (not p72)) (or p63 p82 p51) (or p51 p9 p30) (or (not p40) p60 (not p24)) (or p2 (not p63) (not p7)) (or (not p13) (not p24) (not p39)) (or (not p53) (not p26) (not p75)) (or p43 p50 (not p32)) (or p8 p49 p39) (or p45 (not p61) (not p49)) (or (not p9) p65 (not p28)) (or p23 (not p3) (not p40)) (or (not p2) p80 (not p47)) (or p60 (not p71) p55) (or p84 p29 p28) (or p43 p64 p1) (or p68 (not p32) (not p13)) (or (not p31) p30 p67) (or p5 p38 (not p20)) (or (not p84) (not p13) p4) (or (not p75) (not p7) (not p15)) (or (not p3) (not p31) (not p54)) (or (not p49) p33 p40) (or p28 (not p62) (not p18)) (or p70 p27 p22) (or (not p22) p49 (not p12)) (or (not p11) p64 (not p11)) (or p25 p30 (not p18)) (or p35 (not p11) p7) (or p83 p37 p22) (or (not p23) (not p46) (not p55)) (or (not p87) (not p4) (not p64)) (or (not p4) p44 (not p22)) (or p52 (not p8) p36) (or p64 p18 (not p53)) (or p33 (not p66) p9) (or (not p25) p47 (not p19)) (or (not p57) p22 (not p16)) (or p89 p58 p26) (or p53 p28 (not p14)) (or (not p65) p20 p46) (or p17 p27 p58) (or (not p64) (not p23) p20) (or (not p7) (not p70) p85) (or p56 (not p19) (not p56)) (or p76 p38 p12) (or p62 p1 (not p36)) (or p18 (not p77) (not p24)) (or (not p55) p15 p60) (or (not p26) p79 (not p2)) (or (not p20) p17 p64) (or p48 (not p34) (not p35)) (or (not p14) (not p49) p55) (or p44 (not p31) p13) (or (not p25) p58 (not p73)) (or (not p26) (not p86) (not p19)) (or (not p4) p25 (not p77)) (or p7 p70 (not p28)) (or p2 p87 p87) (or (not p84) (not p13) p57) (or (not p82) p31 p33) (or (not p25) (not p7) p63) (or p16 (not p82) (not p59)) (or p40 (not p52) p57) (or (not p49) p50 p3) (or (not p10) p1 (not p40)) (or (not p75) (not p7) p20) (or (not p65) p68 p83) (or p47 (not p53) p27) (or p8 p85 (not p50)) (or (not p85) p36 p66) (or p81 p23 (not p34)) (or (not p61) p46 p61) (or p16 p15 (not p57)) (or p46 (not p55) p47) (or p58 (not p41) (not p16)) (or p11 p65 (not p75)) (or (not p61) (not p58) (not p60)) (or p64 p54 p41) (or p5 p75 p2) (or p79 p38 (not p51)) (or (not p61) (not p63) (not p3)) (or p86 (not p56) (not p68)) (or p27 p17 p70) (or p57 (not p24) (not p37)) (or p77 p43 p33) (or (not p12) p68 p40) (or p27 p56 (not p14)) (or (not p24) p29 p55) (or (not p0) p28 (not p57)) (or (not p36) p68 (not p76)) (or p63 (not p86) (not p79)) (or (not p71) p40 (not p70)) (or p50 p46 (not p43)) (or p39 (not p69) p38) (or (not p8) p47 p42) (or (not p35) (not p30) p64) (or p34 p46 (not p77)) (or (not p71) (not p55) (not p32)) (or (not p47) p3 (not p19)) (or p20 p85 (not p43)) (or p78 (not p27) (not p79)) (or (not p22) p5 p83) (or p22 (not p17) (not p73)) (or p23 p26 p58) (or p54 p5 p34) (or p75 (not p1) p0) (or (not p17) p66 p10) (or p82 p30 (not p43)) (or p29 (not p71) p52) (or (not p79) p61 (not p19)) (or p55 (not p47) (not p36)) (or (not p34) p82 (not p73)) (or (not p59) p3 p35) (or p65 p12 p41) (or (not p65) (not p45) (not p14)) (or (not p56) p56 p53) (or p46 (not p25) p61) (or (not p81) p2 p85) (or p6 p7 (not p79)) (or (not p55) p59 (not p5)) (or (not p84) p42 p23) (or p34 p8 p37) (or p55 p48 (not p73)) (or p52 p12 (not p10)) (or p12 p68 p28) (or (not p16) p81 p66) (or (not p35) (not p70) p29) (or (not p27) (not p27) p39) (or (not p5) p52 p7) (or p2 (not p8) (not p89)) (or (not p11) p14 p15) (or (not p84) (not p9) (not p53)) (or p48 (not p2) (not p68)) (or p86 p12 p73) (or p63 (not p69) p39) (or p3 (not p44) (not p61)) (or (not p44) p18 (not p15)) (or p29 p28 (not p58)) (or p14 p56 (not p17)) (or (not p76) p48 p77) (or p27 (not p43) (not p18)) (or p33 p56 (not p43)) (or (not p35) p5 p78) (or (not p45) p46 (not p69)) (or p71 p82 p21) (or p38 p10 (not p86)) (or (not p24) (not p9) (not p52)) (or p17 (not p38) (not p54)) (or (not p70) p39 (not p20)) (or p77 p52 p80) (or (not p34) (not p67) (not p84)) (or (not p54) p35 p61) (or (not p35) (not p14) (not p8)) (or p34 p60 p33) (or (not p78) (not p33) p59) (or (not p83) (not p89) p61) (or (not p89) (not p60) (not p10)) (or (not p46) (not p19) (not p33)) (or p12 p83 p72) (or p88 p32 p68) (or p74 (not p61) (not p26)) (or (not p59) (not p73) p82) (or (not p3) p84 (not p37)) (or p72 (not p17) (not p7)) (or (not p46) p23 p19) (or (not p69) (not p61) p54) (or (not p2) (not p53) (not p16)) (or p61 (not p55) p57) (or (not p60) (not p15) (not p24)) (or (not p6) p78 (not p41)) (or p32 (not p6) (not p20)) (or (not p20) p57 (not p1)) (or p44 (not p44) (not p11)) (or (not p74) p18 (not p31)) (or p74 (not p5) p16) (or (not p39) (not p75) p85) (or (not p78) (not p6) p27) (or p75 p34 (not p38)) (or (not p68) (not p89) (not p52)) (or (not p34) (not p39) p29) (or p59 (not p62) p7) (or p35 (not p38) (not p71)) (or p4 p54 (not p23)) (or (not p65) p16 (not p53)) (or p67 (not p1) (not p42)) (or p89 (not p65) p33) (or (not p74) p62 (not p2)) (or (not p53) (not p33) (not p61)) (or (not p15) (not p68) p0) (or p55 p79 p35) (or (not p80) (not p10) p34) (or (not p56) p7 p10) (or p47 p63 (not p33)) (or (not p2) (not p20) (not p32)) (or (not p31) p56 (not p59)) (or p82 p23 p37) (or (not p60) p2 p59) (or p72 p14 (not p66)) (or p58 p31 p75) (or p48 p76 p69) (or (not p23) p45 p25) (or p61 p35 (not p73)) (or p82 (not p18) (not p14)) (or p78 p63 (not p13)) (or p39 (not p57) (not p69)) (or p61 p28 p58) (or p20 (not p52) (not p5)) (or (not p24) p4 p7) (or p63 (not p64) (not p36)) (or p7 p74 (not p75)) (or p61 p30 p21) (or p18 p29 (not p60)) (or p67 p49 p48) (or p48 p27 p44) (or p16 (not p50) p81))
)
(check-sat)
(get-model)
